<number of tasks>
50

<cycle time>
1000

<order strength>
0.598


<task times>
1 177
2 84
3 34
4 118
5 256
6 183
7 419
8 434
9 199
10 124
11 167
12 158
13 262
14 547
15 476
16 156
17 121
18 549
19 443
20 108
21 71
22 170
23 205
24 339
25 90
26 31
27 319
28 285
29 474
30 276
31 227
32 287
33 208
34 87
35 174
36 498
37 203
38 249
39 202
40 250
41 494
42 337
43 66
44 167
45 97
46 73
47 104
48 611
49 164
50 331

<precedence relations>
1,5
2,17
2,18
3,6
3,7
4,6
4,7
5,8
6,9
6,10
6,11
7,9
7,10
7,11
8,15
9,12
9,16
9,17
9,18
10,13
10,16
11,14
11,16
11,17
11,18
12,21
13,22
14,24
15,25
16,19
16,20
16,26
17,23
17,26
18,31
18,32
19,27
20,28
21,31
22,32
23,30
24,31
25,31
26,29
26,31
26,32
27,36
28,33
29,34
30,35
31,36
32,36
33,37
34,37
35,37
36,37
36,38
36,39
36,40
36,41
37,43
37,45
38,42
39,43
39,44
40,43
40,45
41,43
42,46
43,47
43,48
44,47
44,50
45,47
46,49
48,49
48,50

<end>
